0 5163.35
1 5161.74
2 5033.55
3 5033.55
4 5033.55
5 5033.55
6 5033.55
7 5033.55
8 5014.00
9 5014.00
10 5014.00
11 5014.00
12 5014.00
13 4992.50
14 4992.50
15 4992.50
16 4992.50
17 4992.50
18 4992.50
19 4980.46
20 4980.46
21 4980.46
22 4980.46
23 4970.27
24 4970.27
25 4970.27
26 4970.27
27 4970.27
28 4958.72
29 4958.72
30 4958.72
31 4958.72
32 4958.72
33 4958.72
34 4954.68
35 4954.68
36 4954.68
37 4954.68
38 4954.68
39 4923.52
40 4923.52
41 4923.52
42 4923.52
43 4923.52
44 4923.52
45 4923.52
46 4895.68
47 4895.68
48 4895.68
49 4887.94
50 4887.94
51 4887.94
52 4887.94
53 4887.94
54 4887.94
55 4887.94
56 4887.94
57 4887.94
58 4887.94
59 4887.94
60 4887.94
61 4839.33
62 4839.33
63 4839.33
64 4839.33
65 4839.33
66 4839.33
67 4839.33
68 4839.33
69 4839.33
70 4839.33
71 4839.33
72 4839.33
73 4839.33
74 4839.33
75 4839.33
76 4839.33
77 4839.33
78 4839.33
79 4839.33
80 4839.33
81 4839.33
82 4839.33
83 4780.48
84 4780.48
85 4780.48
86 4780.48
87 4780.48
88 4780.48
89 4780.48
90 4780.48
91 4780.48
92 4780.48
93 4780.48
94 4780.48
95 4780.48
96 4780.48
97 4780.48
98 4780.48
99 4780.48
100 4780.48
101 4780.48
102 4780.48
103 4780.48
104 4780.48
105 4780.48
106 4780.48
107 4780.48
108 4780.48
109 4780.48
110 4780.48
111 4780.48
112 4780.48
113 4780.48
114 4780.48
115 4780.48
116 4780.48
117 4780.48
118 4780.48
119 4780.48
120 4780.48
121 4780.48
122 4780.48
123 4780.48
124 4780.48
125 4780.48
126 4780.48
127 4780.48
128 4780.48
129 4780.48
130 4780.48
131 4780.48
132 4780.48
133 4780.48
134 4780.48
135 4780.48
136 4780.48
137 4780.48
138 4780.48
139 4780.48
140 4780.48
141 4780.48
142 4780.48
143 4780.48
144 4780.48
145 4780.48
146 4780.48
147 4780.48
148 4780.48
149 4780.48
150 4780.48
151 4780.48
152 4780.48
153 4780.48
154 4780.48
155 4780.48
156 4780.48
157 4780.48
158 4780.48
159 4780.48
160 4773.70
161 4773.70
162 4773.70
163 4773.70
164 4773.70
165 4773.70
166 4773.70
167 4773.70
168 4773.70
169 4773.70
170 4773.70
171 4773.70
172 4773.70
173 4773.70
174 4773.70
175 4773.70
176 4773.70
177 4773.70
178 4773.70
179 4773.70
180 4773.70
181 4773.70
182 4773.70
183 4773.70
184 4773.70
185 4773.70
186 4773.70
187 4773.70
188 4773.70
189 4773.70
190 4773.70
191 4773.70
192 4773.70
193 4773.70
194 4773.70
195 4773.70
196 4773.70
197 4773.70
198 4773.70
199 4773.70
200 4773.70
201 4773.70
202 4773.70
203 4773.70
204 4773.70
205 4773.70
206 4773.70
207 4773.70
208 4773.70
209 4773.70
210 4773.70
211 4773.70
212 4773.70
213 4773.70
214 4773.70
215 4773.70
216 4773.70
217 4773.70
218 4773.70
219 4773.70
220 4773.70
221 4773.70
222 4773.70
223 4773.70
224 4773.70
225 4773.70
226 4773.70
227 4773.70
228 4773.70
229 4773.70
230 4773.70
231 4773.70
232 4773.70
233 4773.70
234 4773.70
235 4769.79
236 4769.79
237 4769.79
238 4769.79
239 4769.79
240 4769.79
241 4769.79
242 4769.79
243 4769.79
244 4769.79
245 4769.79
246 4769.79
247 4769.79
248 4769.79
249 4769.79
250 4769.79
251 4769.79
252 4769.79
253 4769.79
254 4769.79
255 4769.79
256 4769.79
257 4769.79
258 4769.79
259 4769.79
260 4769.79
261 4769.79
262 4769.79
263 4769.79
264 4769.79
265 4769.79
266 4769.79
267 4769.79
268 4769.79
269 4769.79
270 4769.79
271 4769.79
272 4769.79
273 4769.79
274 4769.79
275 4769.79
276 4769.79
277 4769.79
278 4769.79
279 4769.79
280 4769.79
281 4769.79
282 4769.79
283 4769.79
284 4769.79
285 4769.79
286 4769.79
287 4769.79
288 4769.79
289 4769.79
290 4769.79
291 4769.79
292 4769.79
293 4767.21
294 4767.21
295 4767.21
296 4767.21
297 4767.21
298 4767.21
299 4767.21
300 4767.21
301 4767.21
302 4767.21
303 4767.21
304 4767.21
305 4767.21
306 4767.21
307 4767.21
308 4767.21
309 4767.21
310 4767.21
311 4767.21
312 4767.21
313 4767.21
314 4767.21
315 4767.21
316 4767.21
317 4767.21
318 4767.21
319 4767.21
320 4767.21
321 4767.21
322 4767.21
323 4767.21
324 4767.21
325 4767.21
326 4767.21
327 4767.21
328 4767.21
329 4767.21
330 4767.21
331 4767.21
332 4767.21
333 4767.21
334 4767.21
335 4767.21
336 4767.21
337 4767.21
338 4767.21
339 4767.21
340 4767.21
341 4767.21
342 4767.21
343 4767.21
344 4767.21
345 4767.21
346 4767.21
347 4767.21
348 4767.21
349 4767.21
350 4767.21
351 4767.21
352 4767.21
353 4767.21
354 4767.21
355 4767.21
356 4767.21
357 4767.21
358 4767.21
359 4767.21
360 4767.21
361 4767.21
362 4767.21
363 4767.21
364 4767.21
365 4767.21
366 4767.21
367 4767.21
368 4767.21
369 4767.21
370 4767.21
371 4767.21
372 4767.21
373 4767.21
374 4767.21
375 4767.21
376 4767.21
377 4767.21
378 4767.21
379 4767.21
380 4767.21
381 4767.21
382 4767.21
383 4767.21
384 4767.21
385 4767.21
386 4767.21
387 4767.21
388 4767.21
389 4767.21
390 4767.21
391 4767.21
392 4767.21
393 4767.21
394 4767.21
395 4767.21
396 4767.21
397 4767.21
398 4767.21
399 4767.21
400 4767.21
401 4767.21
402 4767.21
403 4767.21
404 4767.21
405 4767.21
406 4767.21
407 4767.21
408 4767.21
409 4767.21
410 4767.21
411 4767.21
412 4767.21
413 4767.21
414 4767.21
415 4767.21
416 4767.21
417 4767.21
418 4767.21
419 4767.21
420 4767.21
421 4767.21
422 4767.21
423 4767.21
424 4767.21
425 4767.21
426 4767.21
427 4767.21
428 4767.21
429 4767.21
430 4767.21
431 4767.21
432 4767.21
433 4767.21
434 4767.21
435 4767.21
436 4767.21
437 4767.21
438 4767.21
439 4767.21
440 4767.21
441 4767.21
442 4761.23
443 4761.23
444 4761.23
445 4761.23
446 4761.23
447 4761.23
448 4761.23
449 4761.23
450 4761.23
451 4761.23
452 4761.23
453 4761.23
454 4761.23
455 4761.23
456 4761.23
457 4761.23
458 4761.23
459 4761.23
460 4761.23
461 4761.23
462 4761.23
463 4761.23
464 4761.23
465 4761.23
466 4761.23
467 4761.23
468 4761.23
469 4761.23
470 4761.23
471 4761.23
472 4761.23
473 4761.23
474 4761.23
475 4761.23
476 4761.23
477 4761.23
478 4761.23
479 4761.23
480 4761.23
481 4761.23
482 4761.23
483 4761.23
484 4761.23
485 4761.23
486 4761.23
487 4761.23
488 4761.23
489 4761.23
490 4761.23
491 4761.23
492 4761.23
493 4761.23
494 4761.23
495 4761.23
496 4761.23
497 4761.23
498 4761.23
499 4761.23
4 5 8 4 0 0 